122	0

0	3	2	3	4
3	6	5	6	8	9	13	14
2	9	5	6	7	8	9	13	14	16	18
3	6	5	6	8	9	13	14
1	6	10	11	12	15	17	25
3	2	10	15
3	5	10	11	12	15	17
3	2	10	15
2	5	10	11	12	15	17
9	5	31	32	37	40	43
8	3	22	24	30
6	4	20	23	26	33
9	1	21
7	4	19	27	28	29
4	4	19	27	28	29
8	4	19	27	28	29
2	4	19	27	28	29
8	4	19	27	28	29
1	4	20	23	26	33
1	1	21
1	3	22	24	30
1	7	31	32	36	37	39	40	43
10	6	45	46	47	48	50	57
2	5	31	32	37	40	43
10	7	31	32	36	37	39	40	43
8	8	41	42	44	45	46	47	51	57
5	5	31	32	37	40	43
5	5	31	32	37	40	43
8	11	34	35	38	41	42	44	45	46	47	51	57
10	2	48	50
5	8	41	42	44	45	46	47	51	57
2	11	34	35	38	41	42	44	45	46	47	51	57
9	8	41	42	44	45	46	47	51	57
9	6	54	55	56	60	67	71
9	6	54	55	56	60	67	71
6	8	41	42	44	45	46	47	51	57
5	8	41	42	44	45	46	47	51	57
8	8	53	54	55	56	59	60	67	71
8	4	47	48	50	57
5	8	41	42	44	45	46	47	51	57
3	2	48	50
4	2	49	52
6	6	45	46	47	48	50	57
7	6	54	55	56	60	67	71
6	6	54	55	56	60	67	71
6	6	54	55	56	60	67	71
8	7	58	61	62	63	64	66	72
1	2	49	52
3	6	54	55	56	60	67	71
8	6	58	62	65	66	75	85
9	5	56	61	63	64	72
1	8	53	54	55	56	59	60	67	71
8	4	68	69	70	73
3	7	58	61	62	63	64	66	72
5	7	65	68	69	70	73	75	85
2	6	58	62	65	66	75	85
8	7	58	61	62	63	64	66	72
7	10	77	78	79	80	81	82	83	84	86	88
8	4	68	69	70	73
8	1	73
9	5	77	79	81	82	84
3	4	68	69	70	73
2	7	65	68	69	70	73	75	85
3	6	68	69	70	73	75	85
6	10	77	78	79	80	81	82	83	84	86	88
5	2	74	76
7	4	68	69	70	73
4	10	77	78	79	80	81	82	83	84	86	88
6	3	79	82	84
6	3	79	82	84
10	8	76	77	78	80	81	83	86	88
9	5	77	79	81	82	84
1	2	74	76
2	10	77	78	79	80	81	82	83	84	86	88
5	10	77	78	79	80	81	82	83	84	86	88
3	3	79	82	84
4	2	90	91
6	1	90
2	3	87	89	94
4	3	87	89	94
8	4	92	95	96	100
2	3	87	89	94
8	5	92	93	95	96	100
10	1	96
8	3	87	89	94
5	2	90	91
2	1	90
9	4	92	95	96	100
1	2	90	91
2	5	92	93	95	96	100
10	5	97	99	101	102	106
7	4	99	101	102	106
10	3	101	102	106
6	2	95	96
9	6	103	104	105	106	108	109
2	6	97	98	99	101	102	106
7	5	103	104	105	108	109
9	3	103	104	109
6	5	103	104	105	108	109
9	3	101	102	106
4	5	103	104	105	108	109
5	3	103	104	109
3	3	107	112	115
4	4	110	112	114	115
9	3	111	113	114
6	3	107	112	115
2	2	110	114
7	3	111	113	114
4	4	110	112	114	115
4	2	111	113
3	2	116	117
7	3	113	116	117
9	1	120
8	1	119
8	2	116	117
3	1	119
1	2	118	119
5	2	120	121
3	2	120	121
5	1	122
7	1	122
0	0
